-1121 -1201 0
-1173 149 87 1121 0
1019 87 1 0
1020 160 1 0
87 1121 0
d -1173 149 87 1121 0
-80 1121 0
-1201 0
-81 0
1 0
1121 0
161 0
-1041 0
-241 0
61 0
-801 0
-141 0
-861 0
-961 0
-321 0
41 0
1181 0
46 0
-561 0
-121 0
-601 0
-841 0
-621 0
-721 0
-1101 0
-381 0
-661 0
-126 0
-606 0
-666 0
-846 0
-681 0
-781 0
-501 0
21 0
11 0
16 0
26 0
31 0
36 0
51 0
56 0
71 0
76 0
1161 0
6 0
66 0
1166 0
-101 0
0
